# Lennard Jones input file for LAMMPS using start configuration from data file 

units lj

variable 	n index 100

atom_style	atomic

variable gn index 1
if "${gn} > 0" then &
 "newton on" &
else &
 "newton off"
 
read_data 	1m.data

pair_style	lj/cut 4.95
pair_coeff	1 1 1.0 1.0

neighbor	0.5 bin
neigh_modify    every 20 delay 0 check no

fix		1 all nve

timestep	0.001
thermo		100

run		$n
